
--- Job M-2Rft.gms Start 03/17/23 17:55:42 41.2.0 5110e5ff WEX-WEI x86 64bit/MS Windows
--- Applying:
    D:\GAMS\41\gmsprmNT.txt
--- GAMS Parameters defined
    Input "G:\Mi unidad\5. TFG\src\gams\M-2Rft.gms"
    PageSize 0
    ScrDir "G:\Mi unidad\5. TFG\src\gams\225a\"
    SysDir D:\GAMS\41\
    LogOption 3
    ErrMsg 1
    ErrorLog 99
    IDE 1
    LstTitleLeftAligned 1
Licensee: GAMS Demo license for Antonio Sevilla Sastre   G221121|0002CO-GEN
          UCM, Spain                                               DL079880
          C:\Users\Antonio\Documents\GAMS\gamslice.txt
          antsev01@ucm.es, Antonio Sevilla Sastre                          
          Demo license for demonstration and instructional purposes only
Processor information: 1 socket(s), 14 core(s), and 20 thread(s) available
GAMS 41.2.0   Copyright (C) 1987-2022 GAMS Development. All rights reserved
--- Starting compilation
--- M-2Rft.gms(195) 3 Mb
--- Starting execution: elapsed 0:00:00.029
--- M-2Rft.gms(114) 4 Mb
--- Generating MIP model modelo1
--- M-2Rft.gms(192) 4 Mb
---   1,287 rows  513 columns  3,729 non-zeroes
---   456 discrete-columns
--- Range statistics (absolute non-zero finite values)
--- RHS       [min, max] : [ 4.000E-01, 7.000E+01] - Zero values observed as well
--- Bound     [min, max] : [ 1.000E+00, 1.000E+00] - Zero values observed as well
--- Matrix    [min, max] : [ 3.219E-01, 3.800E+01]
--- Executing CPLEX (Solvelink=2): elapsed 0:00:00.129

IBM ILOG CPLEX   41.2.0 5110e5ff Nov 14, 2022          WEI x86 64bit/MS Window

--- *** This solver runs with a demo license. No commercial use.
--- GMO setup time: 0.00s
--- Space for names approximately 0.04 Mb
--- Use option 'names no' to turn use of names off
--- GMO memory 0.70 Mb (peak 0.71 Mb)
--- Dictionary memory 0.00 Mb
--- Cplex 22.1.0.0 link memory 0.02 Mb (peak 0.12 Mb)
--- Starting Cplex

Version identifier: 22.1.0.0 | 2022-03-09 | 1a383f8ce
CPXPARAM_Advance                                 0
CPXPARAM_Threads                                 1
CPXPARAM_MIP_Display                             4
CPXPARAM_MIP_Pool_Capacity                       0
CPXPARAM_MIP_Tolerances_AbsMIPGap                0
Generic callback                                 0x50
Found incumbent of value 11.000000 after 0.00 sec. (0.02 ticks)
Tried aggregator 2 times.
MIP Presolve eliminated 911 rows and 341 columns.
MIP Presolve modified 26 coefficients.
Aggregator did 9 substitutions.
Reduced MIP has 366 rows, 163 columns, and 1044 nonzeros.
Reduced MIP has 107 binaries, 2 generals, 0 SOSs, and 0 indicators.
Presolve time = 0.00 sec. (1.70 ticks)
Probing time = 0.00 sec. (0.50 ticks)
Tried aggregator 1 time.
Detecting symmetries...
MIP Presolve eliminated 1 rows and 1 columns.
MIP Presolve modified 2 coefficients.
Reduced MIP has 365 rows, 162 columns, and 1033 nonzeros.
Reduced MIP has 106 binaries, 2 generals, 0 SOSs, and 0 indicators.
Presolve time = 0.00 sec. (1.10 ticks)
Probing time = 0.00 sec. (0.48 ticks)
Cover probing fixed 0 vars, tightened 1 bounds.
Clique table members: 698.
MIP emphasis: balance optimality and feasibility.
MIP search method: dynamic search.
Parallel mode: none, using 1 thread.
Tried aggregator 1 time.
No LP presolve or aggregator reductions.
Presolve time = 0.00 sec. (0.13 ticks)
Initializing dual steep norms . . .

Iteration log . . .
Iteration:     1   Dual objective     =             1.000000
Root relaxation solution time = 0.00 sec. (0.54 ticks)

        Nodes                                         Cuts/
   Node  Left     Objective  IInf  Best Integer    Best Bound    ItCnt     Gap

*     0+    0                           11.0000        0.0000           100.00%
Found incumbent of value 11.000000 after 0.00 sec. (4.90 ticks)
      0     0        1.0000    12       11.0000        1.0000       13   90.91%
*     0+    0                            6.0000        1.0000            83.33%
Found incumbent of value 6.000000 after 0.00 sec. (5.42 ticks)
      0     0        cutoff              6.0000                     13    0.00%
Elapsed time = 0.00 sec. (5.45 ticks, tree = 0.01 MB)

Root node processing (before b&c):
  Real time             =    0.00 sec. (5.45 ticks)
Sequential b&c:
  Real time             =    0.00 sec. (0.00 ticks)
                          ------------
Total (root+branch&cut) =    0.00 sec. (5.45 ticks)

--- MIP status (101): integer optimal solution.
--- Cplex Time: 0.00sec (det. 5.46 ticks)

--- Fixing integer variables and solving final LP...

Version identifier: 22.1.0.0 | 2022-03-09 | 1a383f8ce
CPXPARAM_Advance                                 2
CPXPARAM_Threads                                 1
CPXPARAM_MIP_Display                             4
CPXPARAM_MIP_Pool_Capacity                       0
CPXPARAM_MIP_Tolerances_AbsMIPGap                0
Tried aggregator 1 time.
LP Presolve eliminated 1043 rows and 459 columns.
Aggregator did 3 substitutions.
Reduced LP has 240 rows, 51 columns, and 480 nonzeros.
Presolve time = 0.00 sec. (0.66 ticks)
Symmetry aggregator did 186 additional substitutions.

Iteration log . . .
Iteration:     1   Dual objective     =             6.000000

Dual crossover.
  Dual:  Fixed no variables.
  Primal:  Fixed no variables.

--- Fixed MIP status (1): optimal.
--- Cplex Time: 0.00sec (det. 1.30 ticks)


Proven optimal solution
MIP Solution:            6.000000    (13 iterations, 0 nodes)
Final Solve:             6.000000    (4 iterations)

Best possible:           6.000000
Absolute gap:            0.000000
Relative gap:            0.000000

--- Reading solution for model modelo1
*** Status: Normal completion
--- Job M-2Rft.gms Stop 03/17/23 17:55:42 elapsed 0:00:00.235
